1833
0 75 133 175 200 253 262 319 395 538 
0 133 199 272 390 414 416 581 654 673 
0 114 209 272 337 368 395 463 654 772 
16 253 361 413 431 527 705 779 872 917 
100 155 293 368 376 406 463 596 634 675 
16 110 204 293 324 361 397 501 525 675 
110 321 406 463 517 582 779 864 966 1049 
376 527 626 679 747 805 809 896 953 981 
139 414 626 747 820 874 931 981 1087 1178 
0 75 213 431 562 835 955 1079 1130 1154 
268 338 435 524 677 944 1049 1078 1135 1142 
494 562 728 816 904 996 1078 1155 1260 1381 
562 613 763 816 873 917 931 995 1043 1098 
655 808 901 913 1001 1142 1154 1214 1334 1371 
744 904 1001 1101 1252 1277 1371 1542 1674 1768 
413 463 874 959 1050 1181 1463 1502 1586 1673 
0 565 959 1006 1101 1169 1255 1502 1522 1574 
181 992 1126 1186 1252 1320 1381 1522 1618 1673 
478 582 679 873 1037 1131 1449 1574 1674 1717 
1080 1186 1273 1307 1369 1425 1491 1593 1649 1732 
